proyfinal/src/viki/013/andrea/andrea-localstore/experimentInOfficeAgust.take6/worker_6/c07a8878-c0e5-43f1-8e2d-8b385134aa7c.als.cnf.out
Reading from standard input... Use '--help' for help.
============================[ Problem Statistics ]=============================
|                                                                             |
|  Number of variables:         87638                                         |
|  Number of clauses:          161767                                         |
|  Parse time:                   0.03 s                                       |
|                                                                             |
============================[ Search Statistics ]==============================
| Conflicts |          ORIGINAL         |          LEARNT          | Progress |
|           |    Vars  Clauses Literals |    Limit  Clauses Lit/Cl |          |
===============================================================================
|       100 |   63873   110531   276256 |    40528      100     15 | 27.117 % |
|       250 |   63873   110531   276256 |    44580      250     39 | 27.117 % |
|       475 |   63873   110531   276256 |    49038      475     35 | 27.117 % |
|       812 |   63873   110531   276256 |    53942      812     44 | 27.117 % |
|      1318 |   63873   110531   276256 |    59337     1318     43 | 27.117 % |
|      2077 |   63873   110531   276256 |    65270     2077     63 | 27.117 % |
|      3216 |   63872   110487   276166 |    71797     3211     65 | 27.119 % |
|      4924 |   63848   110387   275937 |    78977     4173     82 | 27.146 % |
|      7486 |   63829   110311   275761 |    86875     6733     99 | 27.167 % |
|     11330 |   63779   110103   275285 |    95562    10572    103 | 27.225 % |
===============================================================================
restarts              : 62
conflicts             : 15937          (5923 /sec)
decisions             : 63035          (0.00 % random) (23426 /sec)
propagations          : 24484114       (9099077 /sec)
conflict literals     : 1661631        (49.23 % deleted)
Memory used           : 36.34 MB
CPU time              : 2.69083 s

INDETERMINATE
